(declare-fun l0_0 () (_ BitVec 32))
(assert (bvsge l0_0 (_ bv1 32)) )
(assert (bvsle l0_0 (_ bv1964903306 32)) )

(declare-fun h7 () (_ BitVec 32))
(assert (bvsge h7 (_ bv1 32)) )
(assert (bvsle h7 (_ bv31 32)) )

(define-fun PC30 ( (l0_0 (_ BitVec 32)) ) Bool
	(and (and (and (and (and (and (and (and (and ( bvsle h7 #x0000001F) ( = ( bvsmod h7 #x00000002) #x00000001)) ( bvsgt ( bvsdiv h7 #x00000002) #x00000000)) ( = ( bvsmod ( bvsdiv h7 #x00000002) #x00000002) #x00000001)) ( bvsgt ( bvmul l0_0 ( bvsmod ( bvmul ( bvsmod l0_0 #x751E0B8A) ( bvsmod l0_0 #x751E0B8A)) #x751E0B8A)) #x751E0B8A)) ( bvsgt ( bvsdiv ( bvsdiv h7 #x00000002) #x00000002) #x00000000)) (not ( = ( bvsmod ( bvsdiv ( bvsdiv h7 #x00000002) #x00000002) #x00000002) #x00000001))) ( = ( bvsmod ( bvsdiv ( bvsdiv ( bvsdiv h7 #x00000002) #x00000002) #x00000002) #x00000002) #x00000001)) ( bvsle ( bvmul l0_0 ( bvsmod ( bvmul ( bvsmod ( bvmul ( bvsmod ( bvsub ( bvmul l0_0 ( bvsmod ( bvmul ( bvsmod l0_0 #x751E0B8A) ( bvsmod l0_0 #x751E0B8A)) #x751E0B8A)) #x751E0B8A) #x751E0B8A) ( bvsmod ( bvsub ( bvmul l0_0 ( bvsmod ( bvmul ( bvsmod l0_0 #x751E0B8A) ( bvsmod l0_0 #x751E0B8A)) #x751E0B8A)) #x751E0B8A) #x751E0B8A)) #x751E0B8A) ( bvsmod ( bvmul ( bvsmod ( bvsub ( bvmul l0_0 ( bvsmod ( bvmul ( bvsmod l0_0 #x751E0B8A) ( bvsmod l0_0 #x751E0B8A)) #x751E0B8A)) #x751E0B8A) #x751E0B8A) ( bvsmod ( bvsub ( bvmul l0_0 ( bvsmod ( bvmul ( bvsmod l0_0 #x751E0B8A) ( bvsmod l0_0 #x751E0B8A)) #x751E0B8A)) #x751E0B8A) #x751E0B8A)) #x751E0B8A)) #x751E0B8A)) #x751E0B8A)) ( bvsle ( bvsdiv ( bvsdiv ( bvsdiv ( bvsdiv h7 #x00000002) #x00000002) #x00000002) #x00000002) #x00000000)) 
)

(assert (PC30 l0_0)) 
(check-sat)
